Route #1: 18 15 31 9 3 33 44 23
Route #2: 35 38 41 21 40 4
Route #3: 13 27 19 8 12 32 37 22 28
Route #4: 39 29 42 16 1 5
Route #5: 43 11 10 36 2 24 14 17
Route #6: 30 25 26 6 34 7 20
cost 768.8342895507812